cases/matpower/case7_tplgy.m
ipopt
SOCW
[warn | PowerModels]: added zero cost function data for dclines
[warn | PowerModels]: active storage unit 1 is connected to inactive bus 6
[warn | PowerModels]: active branch 6 is connected to inactive bus 6
[warn | PowerModels]: active branch 7 is connected to inactive bus 6
[warn | PowerModels]: active dcline 2 is connected to inactive bus 6
[info | PowerModels]: removing 1 cost terms from generator 1: [100.0, 0.0]
[info | PowerModels]: removing 1 cost terms from generator 2: [100.0, 0.0]
[info | PowerModels]: removing 1 cost terms from generator 3: [1000.0, 0.0]
[info | PowerModels]: removing 3 cost terms from dcline 1: Float64[]
[info | PowerModels]: removing 3 cost terms from dcline 2: Float64[]
[info | PowerModels]: removing 3 cost terms from dcline 3: Float64[]

******************************************************************************
This program contains Ipopt, a library for large-scale nonlinear optimization.
 Ipopt is released as open source code under the Eclipse Public License (EPL).
         For more information visit http://projects.coin-or.org/Ipopt
******************************************************************************

This is Ipopt version 3.13.2, running with linear solver mumps.
NOTE: Other linear solvers might be more efficient (see Ipopt documentation).

Number of nonzeros in equality constraint Jacobian...:       58
Number of nonzeros in inequality constraint Jacobian.:       36
Number of nonzeros in Lagrangian Hessian.............:       14

Total number of variables............................:       28
                     variables with only lower bounds:        0
                variables with lower and upper bounds:       28
                     variables with only upper bounds:        0
Total number of equality constraints.................:       21
Total number of inequality constraints...............:       14
        inequality constraints with only lower bounds:        6
   inequality constraints with lower and upper bounds:        0
        inequality constraints with only upper bounds:        8

iter    objective    inf_pr   inf_du lg(mu)  ||d||  lg(rg) alpha_du alpha_pr  ls
   0  1.1999988e+01 1.11e+00 1.40e+01  -1.0 0.00e+00    -  0.00e+00 0.00e+00   0
   1  5.4871157e+00 1.09e+00 1.37e+01  -1.0 2.98e+00    -  1.09e-02 2.18e-02f  1
   2  5.9411323e+00 1.09e+00 1.37e+01  -1.0 1.57e+00    -  1.97e-03 5.47e-04h  1
   3  1.8243013e+03 1.09e-02 2.72e+02  -1.0 1.67e+00    -  6.42e-02 9.90e-01H  1
   4  1.7745752e+03 1.05e-02 1.95e+02  -1.0 5.34e+00    -  1.27e-01 3.67e-02f  1
   5  1.7997501e+03 1.03e-04 6.56e+02  -1.0 3.90e-01    -  3.72e-01 9.90e-01h  1
   6  1.7903391e+03 3.99e-05 3.39e+03  -1.0 1.87e-01    -  5.84e-01 6.14e-01f  1
   7  1.7949005e+03 7.77e-16 4.00e+04  -1.0 2.09e-01    -  8.51e-01 1.00e+00H  1
   8  1.7918585e+03 1.11e-15 3.14e+00  -1.0 6.46e-02    -  1.00e+00 1.00e+00f  1
   9  1.7889952e+03 1.28e-05 1.39e+06  -3.8 5.35e-02    -  8.61e-01 1.00e+00f  1
iter    objective    inf_pr   inf_du lg(mu)  ||d||  lg(rg) alpha_du alpha_pr  ls
  10  1.7883895e+03 5.00e-06 4.16e+05  -3.8 1.07e-01    -  7.01e-01 9.39e-01f  1
  11  1.7883212e+03 1.30e-06 1.37e+04  -3.8 5.87e-02    -  9.67e-01 1.00e+00h  1
  12  1.7883254e+03 2.55e-15 1.83e-02  -3.8 9.35e-03    -  1.00e+00 1.00e+00h  1
  13  1.7883265e+03 8.88e-16 2.02e-04  -3.8 9.98e-04    -  1.00e+00 1.00e+00h  1
  14  1.7883206e+03 1.78e-15 2.46e-04  -5.7 1.47e-03    -  1.00e+00 1.00e+00h  1
  15  1.7883206e+03 2.11e-15 7.28e-08  -5.7 1.88e-05    -  1.00e+00 1.00e+00h  1
  16  1.7883205e+03 2.89e-15 3.96e-08  -8.6 1.84e-05    -  1.00e+00 1.00e+00h  1
  17  1.7883205e+03 3.55e-15 2.67e-13  -8.6 3.00e-09    -  1.00e+00 1.00e+00h  1

Number of Iterations....: 17

                                   (scaled)                 (unscaled)
Objective...............:   1.7883205350599002e+02    1.7883205350599001e+03
Dual infeasibility......:   2.6733216680492606e-13    2.6733216680492606e-12
Constraint violation....:   3.5527136788005009e-15    3.5527136788005009e-15
Complementarity.........:   2.5059037409814642e-09    2.5059037409814642e-08
Overall NLP error.......:   2.5059037409814642e-09    2.5059037409814642e-08


Number of objective function evaluations             = 20
Number of objective gradient evaluations             = 18
Number of equality constraint evaluations            = 20
Number of inequality constraint evaluations          = 20
Number of equality constraint Jacobian evaluations   = 18
Number of inequality constraint Jacobian evaluations = 18
Number of Lagrangian Hessian evaluations             = 17
Total CPU secs in IPOPT (w/o function evaluations)   =      0.271
Total CPU secs in NLP function evaluations           =      0.234

EXIT: Optimal Solution Found.
Time to Solution........:1.2597448825836182
cases/matpower/case7_tplgy.m
ipopt
QCRM
[warn | PowerModels]: added zero cost function data for dclines
[warn | PowerModels]: active storage unit 1 is connected to inactive bus 6
[warn | PowerModels]: active branch 6 is connected to inactive bus 6
[warn | PowerModels]: active branch 7 is connected to inactive bus 6
[warn | PowerModels]: active dcline 2 is connected to inactive bus 6
[info | PowerModels]: removing 1 cost terms from generator 1: [100.0, 0.0]
[info | PowerModels]: removing 1 cost terms from generator 2: [100.0, 0.0]
[info | PowerModels]: removing 1 cost terms from generator 3: [1000.0, 0.0]
[info | PowerModels]: removing 3 cost terms from dcline 1: Float64[]
[info | PowerModels]: removing 3 cost terms from dcline 2: Float64[]
[info | PowerModels]: removing 3 cost terms from dcline 3: Float64[]

******************************************************************************
This program contains Ipopt, a library for large-scale nonlinear optimization.
 Ipopt is released as open source code under the Eclipse Public License (EPL).
         For more information visit http://projects.coin-or.org/Ipopt
******************************************************************************

This is Ipopt version 3.13.2, running with linear solver mumps.
NOTE: Other linear solvers might be more efficient (see Ipopt documentation).

Number of nonzeros in equality constraint Jacobian...:       75
Number of nonzeros in inequality constraint Jacobian.:      146
Number of nonzeros in Lagrangian Hessian.............:       22

Total number of variables............................:       50
                     variables with only lower bounds:        0
                variables with lower and upper bounds:       44
                     variables with only upper bounds:        0
Total number of equality constraints.................:       26
Total number of inequality constraints...............:       58
        inequality constraints with only lower bounds:       28
   inequality constraints with lower and upper bounds:        0
        inequality constraints with only upper bounds:       30

iter    objective    inf_pr   inf_du lg(mu)  ||d||  lg(rg) alpha_du alpha_pr  ls
   0  1.1999988e+01 1.11e+00 8.32e-01  -1.0 0.00e+00    -  0.00e+00 0.00e+00   0
   1  3.5809999e+02 8.85e-01 2.97e+01  -1.0 1.61e+00  -4.0 6.52e-03 2.03e-01h  1
   2  4.3510709e+02 8.36e-01 2.80e+01  -1.0 1.30e+00  -4.5 5.01e-02 5.58e-02h  1
   3  1.2592432e+03 5.99e-01 1.03e+01  -1.0 1.25e+00  -5.0 3.45e-01 6.24e-01h  1
   4  1.4145539e+03 4.41e-01 1.08e+01  -1.0 1.81e+00  -5.4 1.74e-01 2.94e-01h  1
   5  1.6734069e+03 1.72e-01 9.80e+00  -1.0 1.41e+00  -5.9 5.53e-01 6.88e-01h  1
   6  1.7808734e+03 7.82e-03 1.71e+01  -1.0 5.80e-01  -6.4 1.00e+00 8.87e-01h  1
   7  1.7951807e+03 7.71e-05 1.42e+01  -1.0 9.41e-02  -6.9 1.00e+00 9.90e-01h  1
   8  1.7953735e+03 4.82e-14 2.55e-05  -1.0 3.31e-03  -7.3 1.00e+00 1.00e+00h  1
   9  1.7925564e+03 4.02e-03 1.81e+04  -3.8 1.03e-01  -7.8 8.27e-01 9.68e-01f  1
iter    objective    inf_pr   inf_du lg(mu)  ||d||  lg(rg) alpha_du alpha_pr  ls
  10  1.7894974e+03 3.60e-03 5.49e+03  -3.8 1.19e-01  -8.3 7.28e-01 8.68e-01f  1
  11  1.7891306e+03 5.88e-04 1.62e+03  -3.8 1.12e-01  -8.8 7.22e-01 8.84e-01h  1
  12  1.7891128e+03 1.33e-13 3.75e-03  -3.8 3.20e-02  -9.2 1.00e+00 1.00e+00h  1
  13  1.7891046e+03 6.29e-14 3.27e-05  -3.8 9.14e-03  -9.7 1.00e+00 1.00e+00h  1
  14  1.7890808e+03 1.75e-14 5.80e+01  -5.7 6.04e-03 -10.2 9.96e-01 1.00e+00h  1
  15  1.7890807e+03 3.05e-15 1.58e-06  -5.7 1.04e-04 -10.7 1.00e+00 1.00e+00h  1
  16  1.7890804e+03 1.37e-14 1.03e+01  -8.6 7.23e-05 -11.2 1.00e+00 9.44e-01h  1
  17  1.7890804e+03 6.75e-15 3.05e+00  -8.6 4.04e-06 -11.6 1.00e+00 8.28e-01f  1
In iteration 17, 1 Slack too small, adjusting variable bound
  18  1.7890804e+03 4.96e-14 1.88e+00  -8.6 8.46e-06 -12.1 1.00e+00 5.68e-01f  1
  19  1.7890804e+03 3.29e-14 2.89e-08  -8.6 9.18e-06 -12.6 1.00e+00 1.00e+00h  1
iter    objective    inf_pr   inf_du lg(mu)  ||d||  lg(rg) alpha_du alpha_pr  ls
  20  1.7890804e+03 1.32e-14 3.59e-09  -8.6 4.92e-06 -13.1 1.00e+00 1.00e+00h  1

Number of Iterations....: 20

                                   (scaled)                 (unscaled)
Objective...............:   1.7890803649598658e+02    1.7890803649598656e+03
Dual infeasibility......:   3.5873953746311213e-09    3.5873953746311210e-08
Constraint violation....:   3.6516362850180785e-15    1.3218592886943270e-14
Complementarity.........:   2.7693193592900033e-09    2.7693193592900032e-08
Overall NLP error.......:   3.5873953746311213e-09    3.5873953746311210e-08


Number of objective function evaluations             = 21
Number of objective gradient evaluations             = 21
Number of equality constraint evaluations            = 21
Number of inequality constraint evaluations          = 21
Number of equality constraint Jacobian evaluations   = 21
Number of inequality constraint Jacobian evaluations = 21
Number of Lagrangian Hessian evaluations             = 20
Total CPU secs in IPOPT (w/o function evaluations)   =      0.263
Total CPU secs in NLP function evaluations           =      0.211

EXIT: Optimal Solution Found.
Time to Solution........:1.250213861465454
